(declare-fun bvlambda_19_ () (_ BitVec 1))
(declare-fun bvlambda_28_ () (_ BitVec 2))
(declare-fun a143 () (Array (_ BitVec 1) (_ BitVec 12)))
(assert
(let (($e21 (_ bv0 9)))
(let (($e36 (_ bv1630 12)))
(let (($e164 (concat        $e21  bvlambda_19_)))
(let (($e165 (concat $e164 bvlambda_28_)))
(let (($e167 (store a143 true        $e165)))
(let (($e168 (store $e167 bvlambda_19_ $e36)))
(let (($e614 (select $e168 true       )))
             (   extract        $e614)
                                                                                                                                                                                                                                                                                                                                                                                                                                                                                                                                                                                                                                                                                                                                                                                                                                                                                                                                                                                                                                                                                                                                                                                                                                                                       )                                                                                                                                                                                                                                                                                                                                                                                                                                                             )) ))                                                                                       )              )                    )
